N = 5;
Capacity = 4;
nbVehicles = 5;
maxVisitsPerCustomer = 2;
ItemsPerCustomer = [2, 3, 8, 2, 5];
maxItemsPerCustomer = 8;
binCapacity = 50;
SizesOfItems = [|
  38, 34, 0, 0, 0, 0, 0, 0
| 40, 22, 17, 0, 0, 0, 0, 0
| 31, 27, 24, 23, 22, 22, 15, 11
| 26, 20, 0, 0, 0, 0, 0, 0
| 39, 34, 30, 10, 10, 0, 0, 0
|];
Distance = [|
  0, 51, 13, 65, 24, 43
| 51, 0, 45, 74, 75, 91
| 13, 45, 0, 54, 35, 54
| 65, 74, 54, 0, 80, 98
| 24, 75, 35, 80, 0, 19
| 43, 91, 54, 98, 19, 0
|];
